NAME : P = NP
TYPE : TSP
DIMENSION : 57
EDGE_WEIGHT_TYPE : EUC_2D
NODE_COORD_SECTION
0 451 76
1 144 898
2 199 84
3 142 329
4 274 554
5 114 293
6 191 314
7 80 155
8 472 93
9 151 32
10 573 863
11 503 658
12 38 248
13 300 381
14 627 99
15 155 29
16 313 65
17 417 8
18 571 544
19 274 856
20 443 224
21 311 325
22 186 837
23 377 235
24 264 100
25 550 216
26 218 52
27 35 245
28 416 113
29 69 486
30 369 62
31 450 141
32 290 242
33 85 108
34 148 181
35 17 193
36 247 173
37 778 178
38 442 0
39 35 900
40 483 153
41 126 232
42 34 100
43 685 605
44 180 37
45 545 551
46 441 160
47 271 513
48 211 315
49 51 426
50 143 482
51 87 756
52 78 46
53 1 523
54 8 446
55 27 14
56 88 126